
******************************************************************************
This program contains Ipopt, a library for large-scale nonlinear optimization.
 Ipopt is released as open source code under the Eclipse Public License (EPL).
         For more information visit http://projects.coin-or.org/Ipopt

This version of Ipopt was compiled from source code available at
    https://github.com/IDAES/Ipopt as part of the Institute for the Design of
    Advanced Energy Systems Process Systems Engineering Framework (IDAES PSE
    Framework) Copyright (c) 2018-2019. See https://github.com/IDAES/idaes-pse.

This version of Ipopt was compiled using HSL, a collection of Fortran codes
    for large-scale scientific computation.  All technical papers, sales and
    publicity material resulting from use of the HSL codes within IPOPT must
    contain the following acknowledgement:
        HSL, a collection of Fortran codes for large-scale scientific
        computation. See http://www.hsl.rl.ac.uk.
******************************************************************************

This is Ipopt version 3.13.2, running with linear solver ma27.

Number of nonzeros in equality constraint Jacobian...:      808
Number of nonzeros in inequality constraint Jacobian.:        0
Number of nonzeros in Lagrangian Hessian.............:      702

Total number of variables............................:      351
                     variables with only lower bounds:      108
                variables with lower and upper bounds:      189
                     variables with only upper bounds:        0
Total number of equality constraints.................:      350
Total number of inequality constraints...............:        0
        inequality constraints with only lower bounds:        0
   inequality constraints with lower and upper bounds:        0
        inequality constraints with only upper bounds:        0

iter    objective    inf_pr   inf_du lg(mu)  ||d||  lg(rg) alpha_du alpha_pr  ls
   0  0.0000000e+00 4.47e-01 1.11e-16  -1.0 0.00e+00    -  0.00e+00 0.00e+00   0
   1  1.2689618e+00 3.34e-01 6.71e+04  -1.0 2.60e+05    -  3.73e-01 2.65e-01h  1
   2  1.3442087e+00 3.31e-01 6.65e+04  -1.0 2.16e+05    -  7.43e-01 9.93e-03h  1
   3  1.9556509e+01 9.39e-02 2.65e+04  -1.0 2.73e+05    -  7.45e-01 8.06e-01h  1
   4  3.4096347e+01 5.03e-03 4.76e+03  -1.0 9.31e+04    -  9.07e-01 9.90e-01h  1
   5  3.4944317e+01 6.30e-05 4.26e+01  -1.0 4.88e+03    -  9.87e-01 9.90e-01h  1
   6  3.4945297e+01 6.11e-05 6.81e+05  -1.0 2.43e+02    -  9.90e-01 3.09e-02f  6
   7  3.4952866e+01 5.73e-05 1.32e+06  -1.0 1.24e+03    -  9.90e-01 6.19e-02f  5
   8  3.5082491e+01 2.20e-04 2.10e+04  -1.0 1.36e+03    -  1.00e+00 9.90e-01H  1
   9  3.5070030e+01 9.98e-06 7.81e+05  -1.0 1.39e+02    -  1.00e+00 9.90e-01h  1
iter    objective    inf_pr   inf_du lg(mu)  ||d||  lg(rg) alpha_du alpha_pr  ls
  10  3.5071405e+01 2.73e-07 7.81e+07  -1.0 1.52e+01    -  1.00e+00 9.90e-01h  1
  11  3.5071420e+01 2.75e-09 7.81e+09  -1.0 1.70e-01    -  1.00e+00 9.90e-01h  1
In iteration 11, 27 Slacks too small, adjusting variable bounds
  12  3.5071420e+01 2.73e-11 7.81e+11  -1.0 1.70e-03    -  1.00e+00 9.90e-01h  1
  13  3.5071420e+01 8.42e-12 7.32e-03  -1.0 1.70e-05    -  1.00e+00 1.00e+00h  1
  14  3.5071406e+01 1.56e-11 7.93e+11  -9.0 1.49e+03    -  9.96e-01 1.03e-04f 14
  15  3.5071399e+01 1.98e-11 7.97e+11  -9.0 1.26e+03    -  9.98e-01 6.10e-05f 15
  16  3.5071392e+01 2.35e-11 7.97e+11  -9.0 1.26e+03    -  1.00e+00 6.10e-05f 15
  17  3.5071389e+01 2.44e-11 7.97e+11  -9.0 1.26e+03    -  1.00e+00 3.05e-05f 16
  18  3.5071387e+01 2.47e-11 7.97e+11  -9.0 1.26e+03    -  1.00e+00 1.53e-05f 17
  19  3.4956424e+01 1.37e-03 1.86e+05  -9.0 1.26e+03    -  1.00e+00 1.00e+00f  1
iter    objective    inf_pr   inf_du lg(mu)  ||d||  lg(rg) alpha_du alpha_pr  ls
  20  3.4954244e+01 2.86e-09 1.13e-03  -9.0 2.35e+01    -  1.00e+00 1.00e+00h  1
  21  3.4954244e+01 3.01e-12 3.64e-12  -9.0 3.83e-04    -  1.00e+00 1.00e+00h  1

Number of Iterations....: 21

                                   (scaled)                 (unscaled)
Objective...............:   3.4954244250172934e+01    3.4954244250172934e+01
Dual infeasibility......:   3.6379788070917130e-12    3.6379788070917130e-12
Constraint violation....:   3.0135893780425249e-12    3.0135893780425249e-12
Complementarity.........:   9.0909090909130387e-10    9.0909090909130387e-10
Overall NLP error.......:   2.2815847263492576e-10    9.0909090909130387e-10


Number of objective function evaluations             = 126
Number of objective gradient evaluations             = 22
Number of equality constraint evaluations            = 126
Number of inequality constraint evaluations          = 0
Number of equality constraint Jacobian evaluations   = 22
Number of inequality constraint Jacobian evaluations = 0
Number of Lagrangian Hessian evaluations             = 21
Total CPU secs in IPOPT (w/o function evaluations)   =      0.052
Total CPU secs in NLP function evaluations           =      0.979

EXIT: Optimal Solution Found.
